p cnf 21 48
c weights 1.0 1.0 2.718281828459045 0.36787944117144233 2.718281828459045 0.36787944117144233 1.0 1.0 2.718281828459045 0.36787944117144233 2.718281828459045 0.36787944117144233 1.0 1.0 2.718281828459045 0.36787944117144233 1.0 1.0 2.718281828459045 0.36787944117144233 2.718281828459045 0.36787944117144233 1.0 1.0 2.718281828459045 0.36787944117144233 2.718281828459045 0.36787944117144233 1.0 1.0 2.718281828459045 0.36787944117144233 1.0 1.0 2.718281828459045 0.36787944117144233 1.0 1.0 2.718281828459045 0.36787944117144233 1.0 1.0
2 1 4 0
2 -1 -4 0
-2 1 -4 0
-2 -1 4 0
3 1 9 0
3 -1 -9 0
-3 1 -9 0
-3 -1 9 0
5 4 7 0
5 -4 -7 0
-5 4 -7 0
-5 -4 7 0
6 4 12 0
6 -4 -12 0
-6 4 -12 0
-6 -4 12 0
8 7 15 0
8 -7 -15 0
-8 7 -15 0
-8 -7 15 0
10 9 12 0
10 -9 -12 0
-10 9 -12 0
-10 -9 12 0
11 9 17 0
11 -9 -17 0
-11 9 -17 0
-11 -9 17 0
13 12 15 0
13 -12 -15 0
-13 12 -15 0
-13 -12 15 0
14 12 19 0
14 -12 -19 0
-14 12 -19 0
-14 -12 19 0
16 15 21 0
16 -15 -21 0
-16 15 -21 0
-16 -15 21 0
18 17 19 0
18 -17 -19 0
-18 17 -19 0
-18 -17 19 0
20 19 21 0
20 -19 -21 0
-20 19 -21 0
-20 -19 21 0
